coords = array2d(1..28, 1..2, [604, 545, 20, 987, 718, 795, 510, 592, 274, 213,
    953, 39, 376, 5, 828, 571, 1000, 999, 951, 735, 944, 976, 443,
    832, 768, 331, 816, 827, 736, 35, 607, 224, 355, 893, 870, 97,
    730, 782, 723, 148, 886, 464, 361, 849, 272, 124, 95, 33, 323,
    165, 119, 307, 390, 920, 318, 181]);

n = 28;

